Maximize
  0.5 Z_00_1 + 1.5 Z_00_2 + 2 Z_00_3 + Z_00_4 + 10 Z_01_1 + 5.5 Z_01_2
   + 13 Z_01_3 + 16.5 Z_01_4 + 28 Z_02_1 + 11.5 Z_02_2 + 19 Z_02_3
   + 26.5 Z_02_4 + Z_10_1 + 0.5 Z_10_2 + 1.5 Z_10_3 + 2 Z_10_4 + 7.5 Z_11_1
   + 13 Z_11_2 + 13 Z_11_3 + 11.5 Z_11_4 + 28 Z_12_1 + 11.5 Z_12_2
   + 19 Z_12_3 + 26.5 Z_12_4 + 1.5 Z_20_1 + 0.5 Z_20_2 + Z_20_3 + 2 Z_20_4
   + 15 Z_21_1 + 5.5 Z_21_2 + 10.5 Z_21_3 + 14 Z_21_4 + 14.5 Z_22_1
   + 16 Z_22_2 + 28 Z_22_3 + 26.5 Z_22_4 + 2 Z_30_1 + 0.5 Z_30_2 + Z_30_3
   + 1.5 Z_30_4 + 12.5 Z_31_1 + 8 Z_31_2 + 8 Z_31_3 + 16.5 Z_31_4
   + 14.5 Z_32_1 + 25 Z_32_2 + 23.5 Z_32_3 + 22 Z_32_4
Subject To
 constraint_0_1: Z_00_1 + Z_10_1 + Z_20_1 + Z_30_1 = 1
 constraint_0_2: Z_00_2 + Z_10_2 + Z_20_2 + Z_30_2 = 1
 constraint_0_3: Z_00_3 + Z_10_3 + Z_20_3 + Z_30_3 = 1
 constraint_0_4: Z_00_4 + Z_10_4 + Z_20_4 + Z_30_4 = 1
 constraint_1_1: Z_01_1 + Z_11_1 + Z_21_1 + Z_31_1 = 1
 constraint_1_2: Z_01_2 + Z_11_2 + Z_21_2 + Z_31_2 = 1
 constraint_1_3: Z_01_3 + Z_11_3 + Z_21_3 + Z_31_3 = 1
 constraint_1_4: Z_01_4 + Z_11_4 + Z_21_4 + Z_31_4 = 1
 constraint_2_1: Z_02_1 + Z_12_1 + Z_22_1 + Z_32_1 = 1
 constraint_2_2: Z_02_2 + Z_12_2 + Z_22_2 + Z_32_2 = 1
 constraint_2_3: Z_02_3 + Z_12_3 + Z_22_3 + Z_32_3 = 1
 constraint_2_4: Z_02_4 + Z_12_4 + Z_22_4 + Z_32_4 = 1
Bounds
Binaries
 Z_00_1 Z_00_2 Z_00_3 Z_00_4 Z_01_1 Z_01_2 Z_01_3 Z_01_4 Z_02_1 Z_02_2
 Z_02_3 Z_02_4 Z_10_1 Z_10_2 Z_10_3 Z_10_4 Z_11_1 Z_11_2 Z_11_3 Z_11_4
 Z_12_1 Z_12_2 Z_12_3 Z_12_4 Z_20_1 Z_20_2 Z_20_3 Z_20_4 Z_21_1 Z_21_2
 Z_21_3 Z_21_4 Z_22_1 Z_22_2 Z_22_3 Z_22_4 Z_30_1 Z_30_2 Z_30_3 Z_30_4
 Z_31_1 Z_31_2 Z_31_3 Z_31_4 Z_32_1 Z_32_2 Z_32_3 Z_32_4
End
